83218177483463272507,12,1,2,01,3,1,2,07,4,1,2,08,12,1,2,02,9,1,2,04,13,1,2,015,11,1,2,09,7,1,2,011,13,1,2,011,12,1,2,03,15,1,2,012,14,1,2,014,6,1,2,07,2,1,2,013,5,1,2,010,12,1,2,05,1,1,2,07,8,1,2,010,9,1,2,09,2,1,2,03,3,1,2,09,10,1,2,05,1,1,2,010,7,1,2,09,1,1,2,06,15,1,2,013,1,1,2,02,5,1,2,015,9,1,2,010,3,1,2,06,7,1,2,09,9,1,2,015,14,1,2,015,4,1,2,010,11,1,2,01,3,1,2,011,14,1,2,013,8,1,2,03,5,1,2,04,9,1,2,015,1,1,2,010,9,1,2,04,9,1,2,09,7,1,2,04,1,1,2,06,11,1,2,014,13,1,2,011,10,1,2,07,9,1,2,014,6,1,2,0